[[80, 70, 69, 78, 77, 79, 88, 89, 90, 99, 98, 97, 96, 87, 95, 86, 85, 94], [93, 91, 92, 82, 83, 84, 76, 73, 75, 74, 64, 65, 66, 67, 68, 56, 57, 58, 59, 49, 60], [50, 40, 39, 48, 47, 55, 46, 38, 37, 28, 29, 30, 31, 21, 19, 20, 11, 10, 2], [3, 4, 12, 13, 22, 23, 24, 15, 14, 5, 6, 7, 8, 9, 18, 17, 16, 25, 26, 27], [35, 36, 44, 34, 43, 33, 32, 41, 42, 51, 52, 45, 53, 54, 63, 62, 61, 72, 81, 71]]